     Program PWSCF v.7.2 starts on 25Feb2024 at 22:39:52

     Waiting for input...
     Reading input from standard input

     Current dimensions of program PWSCF are:
     Max number of different atomic species (ntypx) = 10
     Max number of k-points (npk) =  40000
     Max angular momentum in pseudopotentials (lmaxx) =  4
     file Cu.pbe-dn-kjpaw_psl.1.0.0.UPF: wavefunction(s)  4S 3D renormalized
     Message from routine setup:
     using ibrav=0 with symmetry is DISCOURAGED, use correct ibrav instead

     K-points division:     npool     =       2
     R & G space division:  proc/nbgrp/npool/nimage =      12
     Subspace diagonalization in iterative solution of the eigenvalue problem:
     a serial algorithm will be used

     Using Slab Decomposition

     bravais-lattice index     =            0
     lattice parameter (alat)  =       4.8389  a.u.
     unit-cell volume          =      80.1156 (a.u.)^3
     number of atoms/cell      =            1
     number of atomic types    =            1
     number of electrons       =        11.00
     number of Kohn-Sham states=           10
     kinetic-energy cutoff     =      44.6641  Ry
     charge density cutoff     =     235.8754  Ry
     scf convergence threshold =      1.0E-08
     mixing beta               =       0.7000
     number of iterations used =            8  plain     mixing
     Exchange-correlation= SLA  PW   PBX  PBC
                           (   1   4   3   4   0   0   0)

     celldm(1)=   4.838871  celldm(2)=   0.000000  celldm(3)=   0.000000
     celldm(4)=   0.000000  celldm(5)=   0.000000  celldm(6)=   0.000000

     crystal axes: (cart. coord. in units of alat)
               a(1) = (   1.000000   0.000000   0.000000 )
               a(2) = (   0.500000   0.866025   0.000000 )
               a(3) = (   0.500000   0.288675   0.816497 )

     reciprocal axes: (cart. coord. in units 2 pi/alat)
               b(1) = (  1.000000 -0.577350 -0.408248 )
               b(2) = (  0.000000  1.154701 -0.408248 )
               b(3) = (  0.000000  0.000000  1.224745 )

     PseudoPot. # 1 for Cu read from file:
     ./pseudo/Cu.pbe-dn-kjpaw_psl.1.0.0.UPF
     MD5 check sum: cfffd1f38ee05704b3e17f46f1730a6f
     Pseudo is Projector augmented-wave + core cor, Zval = 11.0
     Generated using &quot;atomic&quot; code by A. Dal Corso  v.6.3
     Shape of augmentation charge: PSQ
     Using radial grid of 1199 points,  6 beta functions with:
                l(1) =   0
                l(2) =   0
                l(3) =   1
                l(4) =   1
                l(5) =   2
                l(6) =   2
     Q(r) pseudized with 0 coefficients

     atomic species   valence    mass     pseudopotential
        Cu            11.00    63.54600     Cu( 1.00)

     12 Sym. Ops., with inversion, found

   Cartesian axes

     site n.     atom                  positions (alat units)
         1           Cu  tau(   1) = (   0.0000000   0.0000000   0.0000000  )

     number of k points=    65  Gaussian smearing, width (Ry)=  0.0100
                       cart. coord. in units 2pi/alat
        k(    1) = (   0.0000000   0.0000000   0.0000000), wk =   0.0039062
        k(    2) = (   0.0000000   0.0000000   0.1530931), wk =   0.0078125
        k(    3) = (   0.0000000   0.0000000   0.3061862), wk =   0.0078125
        k(    4) = (   0.0000000   0.0000000   0.4592793), wk =   0.0078125
        k(    5) = (   0.0000000   0.0000000  -0.6123724), wk =   0.0039062
        k(    6) = (   0.0000000   0.1443376  -0.0510310), wk =   0.0234375
        k(    7) = (   0.0000000   0.1443376   0.1020621), wk =   0.0234375
        k(    8) = (   0.0000000   0.1443376   0.2551552), wk =   0.0234375
        k(    9) = (   0.0000000   0.1443376   0.4082483), wk =   0.0234375
        k(   10) = (   0.0000000   0.1443376  -0.6634035), wk =   0.0234375
        k(   11) = (   0.0000000   0.1443376  -0.5103104), wk =   0.0234375
        k(   12) = (   0.0000000   0.1443376  -0.3572173), wk =   0.0234375
        k(   13) = (   0.0000000   0.1443376  -0.2041241), wk =   0.0234375
        k(   14) = (   0.0000000   0.2886751  -0.1020621), wk =   0.0234375
        k(   15) = (   0.0000000   0.2886751   0.0510310), wk =   0.0234375
        k(   16) = (   0.0000000   0.2886751   0.2041241), wk =   0.0234375
        k(   17) = (   0.0000000   0.2886751   0.3572173), wk =   0.0234375
        k(   18) = (   0.0000000   0.2886751  -0.7144345), wk =   0.0234375
        k(   19) = (   0.0000000   0.2886751  -0.5613414), wk =   0.0234375
        k(   20) = (   0.0000000   0.2886751  -0.4082483), wk =   0.0234375
        k(   21) = (   0.0000000   0.2886751  -0.2551552), wk =   0.0234375
        k(   22) = (   0.0000000   0.4330127  -0.1530931), wk =   0.0234375
        k(   23) = (   0.0000000   0.4330127   0.0000000), wk =   0.0234375
        k(   24) = (   0.0000000   0.4330127   0.1530931), wk =   0.0234375
        k(   25) = (   0.0000000   0.4330127   0.3061862), wk =   0.0234375
        k(   26) = (   0.0000000   0.4330127  -0.7654655), wk =   0.0234375
        k(   27) = (   0.0000000   0.4330127  -0.6123724), wk =   0.0234375
        k(   28) = (   0.0000000   0.4330127  -0.4592793), wk =   0.0234375
        k(   29) = (   0.0000000   0.4330127  -0.3061862), wk =   0.0234375
        k(   30) = (   0.0000000  -0.5773503   0.2041241), wk =   0.0117188
        k(   31) = (   0.0000000  -0.5773503   0.3572173), wk =   0.0234375
        k(   32) = (   0.0000000  -0.5773503   0.5103104), wk =   0.0234375
        k(   33) = (   0.0000000  -0.5773503   0.6634035), wk =   0.0234375
        k(   34) = (   0.0000000  -0.5773503  -0.4082483), wk =   0.0117188
        k(   35) = (   0.1250000   0.2165064  -0.1530931), wk =   0.0468750
        k(   36) = (   0.1250000   0.2165064   0.0000000), wk =   0.0234375
        k(   37) = (   0.1250000   0.2165064   0.3061862), wk =   0.0468750
        k(   38) = (   0.1250000   0.2165064  -0.7654655), wk =   0.0468750
        k(   39) = (   0.1250000   0.2165064  -0.6123724), wk =   0.0234375
        k(   40) = (   0.1250000   0.3608439  -0.2041241), wk =   0.0468750
        k(   41) = (   0.1250000   0.3608439  -0.0510310), wk =   0.0468750
        k(   42) = (   0.1250000   0.3608439   0.1020621), wk =   0.0468750
        k(   43) = (   0.1250000   0.3608439   0.2551552), wk =   0.0468750
        k(   44) = (   0.1250000   0.3608439  -0.8164966), wk =   0.0468750
        k(   45) = (   0.1250000   0.3608439  -0.6634035), wk =   0.0468750
        k(   46) = (   0.1250000   0.3608439  -0.5103104), wk =   0.0468750
        k(   47) = (   0.1250000   0.3608439  -0.3572173), wk =   0.0468750
        k(   48) = (   0.1250000  -0.6495191   0.1530931), wk =   0.0468750
        k(   49) = (   0.1250000  -0.6495191   0.3061862), wk =   0.0468750
        k(   50) = (   0.1250000  -0.6495191   0.4592793), wk =   0.0468750
        k(   51) = (   0.1250000  -0.6495191   0.6123724), wk =   0.0468750
        k(   52) = (   0.1250000  -0.6495191  -0.4592793), wk =   0.0468750
        k(   53) = (   0.1250000  -0.6495191  -0.3061862), wk =   0.0468750
        k(   54) = (   0.1250000  -0.6495191  -0.1530931), wk =   0.0468750
        k(   55) = (   0.1250000  -0.6495191   0.0000000), wk =   0.0468750
        k(   56) = (   0.2500000  -0.7216878   0.1020621), wk =   0.0468750
        k(   57) = (   0.2500000  -0.7216878   0.2551552), wk =   0.0468750
        k(   58) = (   0.2500000  -0.7216878   0.4082483), wk =   0.0234375
        k(   59) = (   0.2500000  -0.7216878  -0.3572173), wk =   0.0468750
        k(   60) = (   0.2500000  -0.7216878  -0.2041241), wk =   0.0234375
        k(   61) = (   0.2500000  -0.5773503   0.0510310), wk =   0.0468750
        k(   62) = (   0.2500000  -0.5773503   0.2041241), wk =   0.0234375
        k(   63) = (   0.2500000  -0.5773503   0.5103104), wk =   0.0468750
        k(   64) = (   0.2500000  -0.5773503  -0.5613414), wk =   0.0468750
        k(   65) = (   0.2500000  -0.5773503  -0.4082483), wk =   0.0234375

     Initial potential from superposition of free atoms

     starting charge      10.9998, renormalised to      11.0000
     Starting wfcs are    9 randomized atomic wfcs +    1 random wfcs
     Checking if some PAW data can be deallocated...

     Self-consistent Calculation

     iteration #  1     ecut=    44.66 Ry     beta= 0.70
     Davidson diagonalization with overlap
     ethr =  1.00E-02,  avg # of iterations =  3.9

     Threshold (ethr) on eigenvalues was too large:
     Diagonalizing with lowered threshold

     Davidson diagonalization with overlap
     ethr =  5.61E-04,  avg # of iterations =  1.2

     total energy              =    -213.05517634 Ry
     estimated scf accuracy    <       0.06154117 Ry

[...]

     total energy              =    -213.09201399 Ry
     estimated scf accuracy    <       0.00000001 Ry

     iteration #  7     ecut=    44.66 Ry     beta= 0.70
     Davidson diagonalization with overlap
     ethr =  1.17E-10,  avg # of iterations =  3.6

     End of self-consistent calculation

          k = 0.0000 0.0000 0.0000 (   411 PWs)   bands (ev):

     3.2140   9.6040   9.6040   9.6040  10.4288  10.4288  35.4373  37.7953
    37.7953  37.7953

[...]

          k = 0.2500-0.5774-0.4082 (   399 PWs)   bands (ev):

     8.3209   8.5533   9.8549  10.5627  10.9462  16.8814  18.2802  20.3643
    27.6798  31.8232

     the Fermi energy is    12.5395 ev

!    total energy              =    -213.09201400 Ry
     total all-electron energy =     -3309.971780 Ry
     estimated scf accuracy    <          1.3E-11 Ry
     smearing contrib. (-TS)   =      -0.00040131 Ry
     internal energy E=F+TS    =    -213.09161269 Ry

     The total energy is F=E-TS. E is the sum of the following terms:
     one-electron contribution =     -28.26286623 Ry
     hartree contribution      =      30.71651494 Ry
     xc contribution           =     -44.62961493 Ry
     ewald contribution        =     -81.06859525 Ry
     one-center paw contrib.   =     -89.84705122 Ry

     convergence has been achieved in   7 iterations

     Writing all to output data dir ./tmp/cu.save/

     General routines

     Parallel routines

   This run was terminated on:  22:39:54  25Feb2024

   JOB DONE.