     Program PWSCF v.7.2 starts on 25Feb2024 at 22:51:28

     Waiting for input...
     Reading input from standard input
Warning: card &CELL ignored
Warning: card / ignored

     Current dimensions of program PWSCF are:
     Max number of different atomic species (ntypx) = 10
     Max number of k-points (npk) =  40000
     Max angular momentum in pseudopotentials (lmaxx) =  4
     file Cu.pbe-dn-kjpaw_psl.1.0.0.UPF: wavefunction(s)  4S 3D renormalized
     Found identity + (  0.0000  0.0000  0.5000) symmetry
     This is a supercell, fractional translations are disabled
     Message from routine setup:
     using ibrav=0 with symmetry is DISCOURAGED, use correct ibrav instead

     K-points division:     npool     =       2
     R & G space division:  proc/nbgrp/npool/nimage =      12
     Subspace diagonalization in iterative solution of the eigenvalue problem:
     a serial algorithm will be used

     Using Slab Decomposition

     bravais-lattice index     =            0
     lattice parameter (alat)  =       9.6777  a.u.
     unit-cell volume          =     640.9239 (a.u.)^3
     number of atoms/cell      =            8
     number of atomic types    =            1
     number of electrons       =        88.00
     number of Kohn-Sham states=           53
     kinetic-energy cutoff     =      44.6641  Ry
     charge density cutoff     =     235.8754  Ry
     scf convergence threshold =      1.0E-06
     mixing beta               =       0.7000
     number of iterations used =            8  plain     mixing
     Exchange-correlation= SLA  PW   PBX  PBC
                           (   1   4   3   4   0   0   0)

     celldm(1)=   9.677737  celldm(2)=   0.000000  celldm(3)=   0.000000
     celldm(4)=   0.000000  celldm(5)=   0.000000  celldm(6)=   0.000000

     crystal axes: (cart. coord. in units of alat)
               a(1) = (   1.000000   0.000000   0.000000 )
               a(2) = (   0.500000   0.866025   0.000000 )
               a(3) = (   0.500000   0.288675   0.816497 )

     reciprocal axes: (cart. coord. in units 2 pi/alat)
               b(1) = (  1.000000 -0.577350 -0.408248 )
               b(2) = (  0.000000  1.154701 -0.408248 )
               b(3) = (  0.000000  0.000000  1.224745 )

     PseudoPot. # 1 for Cu read from file:
     ./pseudo/Cu.pbe-dn-kjpaw_psl.1.0.0.UPF
     MD5 check sum: cfffd1f38ee05704b3e17f46f1730a6f
     Pseudo is Projector augmented-wave + core cor, Zval = 11.0
     Generated using &quot;atomic&quot; code by A. Dal Corso  v.6.3
     Shape of augmentation charge: PSQ
     Using radial grid of 1199 points,  6 beta functions with:
                l(1) =   0
                l(2) =   0
                l(3) =   1
                l(4) =   1
                l(5) =   2
                l(6) =   2
     Q(r) pseudized with 0 coefficients

     atomic species   valence    mass     pseudopotential
        Cu            11.00    63.54600     Cu( 1.00)

     12 Sym. Ops., with inversion, found

   Cartesian axes

     site n.     atom                  positions (alat units)
         1           Cu  tau(   1) = (   0.0000000   0.0000000   0.0000000  )
         2           Cu  tau(   2) = (   0.2500000   0.1443376   0.4082483  )
         3           Cu  tau(   3) = (   0.2500000   0.4330127   0.0000000  )
         4           Cu  tau(   4) = (   0.5000000   0.5773503   0.4082483  )
         5           Cu  tau(   5) = (   0.5000000   0.0000000   0.0000000  )
         6           Cu  tau(   6) = (   0.7500000   0.1443376   0.4082483  )
         7           Cu  tau(   7) = (   0.7500000   0.4330127   0.0000000  )
         8           Cu  tau(   8) = (   1.0000000   0.5773503   0.4082483  )

     number of k points=     4  Gaussian smearing, width (Ry)=  0.0100
                       cart. coord. in units 2pi/alat
        k(    1) = (   0.0000000   0.0000000   0.0000000), wk =   0.2500000
        k(    2) = (   0.0000000   0.0000000  -0.6123724), wk =   0.2500000
        k(    3) = (   0.0000000  -0.5773503   0.2041241), wk =   0.7500000
        k(    4) = (   0.0000000  -0.5773503  -0.4082483), wk =   0.7500000

     Initial potential from superposition of free atoms

     starting charge      87.9982, renormalised to      88.0000
     Starting wfcs are   72 randomized atomic wfcs
     Checking if some PAW data can be deallocated...

     Self-consistent Calculation

     iteration #  1     ecut=    44.66 Ry     beta= 0.70
     Davidson diagonalization with overlap
     ethr =  1.00E-02,  avg # of iterations =  2.5

     Threshold (ethr) on eigenvalues was too large:
     Diagonalizing with lowered threshold

     Davidson diagonalization with overlap
     ethr =  3.78E-04,  avg # of iterations =  2.0

     total energy              =   -1704.40640654 Ry
     estimated scf accuracy    <       0.43799150 Ry

[...]

     total energy              =   -1704.65881301 Ry
     estimated scf accuracy    <       0.00000273 Ry

     iteration #  8     ecut=    44.66 Ry     beta= 0.70
     Davidson diagonalization with overlap
     ethr =  3.10E-09,  avg # of iterations =  4.5

     End of self-consistent calculation

          k = 0.0000 0.0000 0.0000 (  3215 PWs)   bands (ev):

     3.2102   7.5039   7.5039   7.5039   7.5039   7.7127   7.7127   7.7127
     8.1739   8.1739   8.1739   9.5352   9.5352   9.5352   9.5352   9.5352
     9.5352   9.5352   9.5352   9.5678   9.5678   9.5678  10.3917  10.3917
    10.9428  10.9428  10.9428  10.9595  10.9595  10.9595  10.9596  10.9596
    10.9596  10.9596  10.9596  11.1026  11.1026  11.1026  11.1026  11.1026
    11.1026  11.5444  11.5444  11.5444  11.5445  14.0370  14.0370  14.0370
    16.2873  16.2874  16.2874  16.2874  19.6305

[...]

          k = 0.0000-0.5774-0.4082 (  3250 PWs)   bands (ev):

     5.9664   5.9664   7.8668   7.8668   7.8668   7.8668   8.4520   8.4520
     8.8505   8.8505   9.0566   9.0566   9.0566   9.0566   9.0611   9.0611
     9.0611   9.0611   9.2703   9.2703   9.2703   9.2704   9.9301   9.9301
    10.0670  10.0670  10.0670  10.0670  10.2286  10.2286  10.2286  10.2286
    10.3506  10.3506  10.3906  10.3906  10.3906  10.3906  10.6638  10.6638
    11.1034  11.1034  12.2635  12.2635  12.2635  12.2635  18.7361  18.7361
    18.7361  18.7361  20.8439  21.2977  21.2979

     the Fermi energy is    13.3289 ev

!    total energy              =   -1704.65881411 Ry
     total all-electron energy =    -26479.696943 Ry
     estimated scf accuracy    <       0.00000043 Ry
     smearing contrib. (-TS)   =      -0.00377916 Ry
     internal energy E=F+TS    =   -1704.65503495 Ry

     The total energy is F=E-TS. E is the sum of the following terms:
     one-electron contribution =    -225.86713626 Ry
     hartree contribution      =     245.55385063 Ry
     xc contribution           =    -357.00627597 Ry
     ewald contribution        =    -648.54903537 Ry
     one-center paw contrib.   =    -718.78643798 Ry

     convergence has been achieved in   8 iterations

     Writing all to output data dir ./tmp/cu.save/

     Callmd by init_run:

     General routines

     Parallel routines

   This run was terminated on:  22:51:30  25Feb2024

   JOB DONE.