     Program PWSCF v.7.2 starts on 25Feb2024 at 23:21:38

     Waiting for input...
     Reading input from standard input
Warning: card &CELL ignored
Warning: card / ignored

     Current dimensions of program PWSCF are:
     Max number of different atomic species (ntypx) = 10
     Max number of k-points (npk) =  40000
     Max angular momentum in pseudopotentials (lmaxx) =  4
     file Cuh.UPF: wavefunction(s)  4S renormalized
     file Cu.pbe-dn-kjpaw_psl.1.0.0.UPF: wavefunction(s)  4S 3D renormalized
     Message from routine setup:
     using ibrav=0 with symmetry is DISCOURAGED, use correct ibrav instead

     R & G space division:  proc/nbgrp/npool/nimage =      24
     Subspace diagonalization in iterative solution of the eigenvalue problem:
     one sub-group per band group will be used

     Using Slab Decomposition

     bravais-lattice index     =            0
     lattice parameter (alat)  =      14.5166  a.u.
     unit-cell volume          =    2163.1180 (a.u.)^3
     number of atoms/cell      =           27
     number of atomic types    =            2
     number of electrons       =       297.00
     number of Kohn-Sham states=          179
     kinetic-energy cutoff     =      67.0000  Ry
     charge density cutoff     =     269.0000  Ry
     scf convergence threshold =      1.0E-06
     mixing beta               =       0.7000
     number of iterations used =            8  plain     mixing
     Exchange-correlation= SLA  PW   PBX  PBC
                           (   1   4   3   4   0   0   0)

     celldm(1)=  14.516605  celldm(2)=   0.000000  celldm(3)=   0.000000
     celldm(4)=   0.000000  celldm(5)=   0.000000  celldm(6)=   0.000000

     crystal axes: (cart. coord. in units of alat)
               a(1) = (   1.000000   0.000000   0.000000 )
               a(2) = (   0.500000   0.866025   0.000000 )
               a(3) = (   0.500000   0.288675   0.816497 )

     reciprocal axes: (cart. coord. in units 2 pi/alat)
               b(1) = (  1.000000 -0.577350 -0.408248 )
               b(2) = (  0.000000  1.154701 -0.408248 )
               b(3) = (  0.000000  0.000000  1.224745 )

     PseudoPot. # 1 for Cu read from file:
     ./pseudo/Cuh.UPF
     MD5 check sum: 79094201ef4d7dce6b3a037154c5f280
     Pseudo is Projector augmented-wave + core cor, Zval = 12.0
     Generated using 'atomic' code by A. Dal Corso  v.7.2
     Shape of augmentation charge: PSQ
     Using radial grid of 1199 points,  6 beta functions with:
                l(1) =   0
                l(2) =   0
                l(3) =   1
                l(4) =   1
                l(5) =   2
                l(6) =   2
     Q(r) pseudized with 0 coefficients

     PseudoPot. # 2 for Cu read from file:
     ./pseudo/Cu.pbe-dn-kjpaw_psl.1.0.0.UPF
     MD5 check sum: cfffd1f38ee05704b3e17f46f1730a6f
     Pseudo is Projector augmented-wave + core cor, Zval = 11.0
     Generated using &quot;atomic&quot; code by A. Dal Corso  v.6.3
     Shape of augmentation charge: PSQ
     Using radial grid of 1199 points,  6 beta functions with:
                l(1) =   0
                l(2) =   0
                l(3) =   1
                l(4) =   1
                l(5) =   2
                l(6) =   2
     Q(r) pseudized with 0 coefficients

     atomic species   valence    mass     pseudopotential
        Cuh           12.00    63.54600     Cu( 1.00)
        Cu            11.00    63.54600     Cu( 1.00)

     12 Sym. Ops., with inversion, found

   Cartesian axes

     site n.     atom                  positions (alat units)
         1           Cuh tau(   1) = (   0.0000000   0.0000000   0.0000000  )
         2           Cu  tau(   2) = (   0.1666667   0.0962250   0.2721655  )
         3           Cu  tau(   3) = (   0.3333333   0.1924501   0.5443311  )
         4           Cu  tau(   4) = (   0.1666667   0.2886751   0.0000000  )
         5           Cu  tau(   5) = (   0.3333333   0.3849002   0.2721655  )
         6           Cu  tau(   6) = (   0.5000000   0.4811252   0.5443311  )
         7           Cu  tau(   7) = (   0.3333333   0.5773503   0.0000000  )
         8           Cu  tau(   8) = (   0.5000000   0.6735753   0.2721655  )
         9           Cu  tau(   9) = (   0.6666667   0.7698004   0.5443311  )
        10           Cu  tau(  10) = (   0.3333333   0.0000000   0.0000000  )
        11           Cu  tau(  11) = (   0.5000000   0.0962250   0.2721655  )
        12           Cu  tau(  12) = (   0.6666667   0.1924501   0.5443311  )
        13           Cu  tau(  13) = (   0.5000000   0.2886751   0.0000000  )
        14           Cu  tau(  14) = (   0.6666667   0.3849002   0.2721655  )
        15           Cu  tau(  15) = (   0.8333333   0.4811252   0.5443311  )
        16           Cu  tau(  16) = (   0.6666667   0.5773503   0.0000000  )
        17           Cu  tau(  17) = (   0.8333333   0.6735753   0.2721655  )
        18           Cu  tau(  18) = (   1.0000000   0.7698004   0.5443311  )
        19           Cu  tau(  19) = (   0.6666667   0.0000000   0.0000000  )
        20           Cu  tau(  20) = (   0.8333333   0.0962250   0.2721655  )
        21           Cu  tau(  21) = (   1.0000000   0.1924501   0.5443311  )
        22           Cu  tau(  22) = (   0.8333333   0.2886751   0.0000000  )
        23           Cu  tau(  23) = (   1.0000000   0.3849002   0.2721655  )
        24           Cu  tau(  24) = (   1.1666667   0.4811252   0.5443311  )
        25           Cu  tau(  25) = (   1.0000000   0.5773503   0.0000000  )
        26           Cu  tau(  26) = (   1.1666667   0.6735753   0.2721655  )
        27           Cu  tau(  27) = (   1.3333333   0.7698004   0.5443311  )

     number of k points=     4  Gaussian smearing, width (Ry)=  0.0100
                       cart. coord. in units 2pi/alat
        k(    1) = (   0.0000000   0.0000000   0.0000000), wk =   0.2500000
        k(    2) = (   0.0000000   0.0000000  -0.6123724), wk =   0.2500000
        k(    3) = (   0.0000000  -0.5773503   0.2041241), wk =   0.7500000
        k(    4) = (   0.0000000  -0.5773503  -0.4082483), wk =   0.7500000

     Initial potential from superposition of free atoms

     starting charge     296.9941, renormalised to     297.0000
     Starting wfcs are  243 randomized atomic wfcs
     Checking if some PAW data can be deallocated...

     Self-consistent Calculation

     iteration #  1     ecut=    67.00 Ry     beta= 0.70
     Davidson diagonalization with overlap
     ethr =  1.00E-02,  avg # of iterations =  2.8

     total energy              =   -5757.44458975 Ry
     estimated scf accuracy    <       4.84379599 Ry

[...]

     total energy              =   -5760.94977550 Ry
     estimated scf accuracy    <       0.00000139 Ry

     iteration # 20     ecut=    67.00 Ry     beta= 0.70
     Davidson diagonalization with overlap
     ethr =  4.69E-10,  avg # of iterations =  2.0

     End of self-consistent calculation

          k = 0.0000 0.0000 0.0000 ( 19987 PWs)   bands (ev):

     3.2213   5.2744   5.2744   5.2745   5.3613   5.3613   6.2396   6.6133
     6.6133   6.6134   6.6914   6.8467   6.8468   6.8468   7.2697   7.3445
     7.3446   7.3446   7.5692   7.5692   8.5730   8.5775   8.5819   8.5819
     8.5865   8.5865   8.5866   8.5901   8.5901   8.5901   8.6072   8.6072
     8.6072   8.6449   8.6449   8.7182   8.7182   8.7183   8.7746   8.7769
     8.7769   8.7770   8.7835   8.7835   8.7837   8.9414   8.9415   8.9415
     9.1232   9.1232   9.4369   9.4369   9.4371   9.4991   9.4991   9.5068
     9.5068   9.5070   9.5117   9.5541   9.5541   9.5542   9.5812   9.5911
     9.5912   9.5912   9.6209   9.6368   9.6368   9.6370   9.6773   9.6774
     9.6774   9.7033   9.7033   9.7034   9.7062   9.7063   9.7063   9.7154
     9.7154   9.7154   9.7247   9.7247   9.9242   9.9242  10.2369  10.2369
    10.2369  10.3647  10.3647  10.3648  10.3727  10.3808  10.3808  10.3810
    10.3902  10.3902  10.3903  10.4286  10.4286  10.4870  10.5223  10.5223
    10.5223  10.5418  10.5418  10.6502  10.6502  10.6796  10.6796  10.6796
    10.6854  10.6855  10.6855  10.6903  10.6903  10.6904  10.7247  10.7247
    10.7247  10.7435  10.7435  10.7435  10.7448  10.7448  10.7448  10.7548
    10.7549  10.7549  10.7649  10.7649  10.8000  10.8002  10.8002  10.8056
    10.8136  10.8137  10.8137  10.8242  10.8242  10.8263  10.8263  10.8267
    10.8267  10.8267  10.8407  10.8680  10.8680  10.8680  15.6634  15.7249
    15.7249  15.7250  15.7493  15.7493  15.7494  15.7983  15.7983  15.8680
    15.8680  15.8680  18.3077  18.3077  18.3077  18.3848  18.3848  18.3848
    18.5537  18.5537  18.5538  18.5595  18.5676  18.5676  20.4528  20.8494
    21.0216  21.0238  21.0262

[...]

          k = 0.0000-0.5774-0.4082 ( 20094 PWs)   bands (ev):

     4.4224   4.6043   5.2359   5.3263   5.3263   5.3281   5.3820   5.6562
     5.7670   5.7670   5.9523   7.8002   7.8627   7.9406   8.0069   8.0069
     8.0122   8.0453   8.0454   8.0764   8.0765   8.0879   8.1258   8.1279
     8.1530   8.1994   8.1994   8.2148   8.2985   8.2985   8.4327   8.4395
     8.6122   8.6127   8.6318   8.6893   8.6893   8.8177   8.8177   8.8339
     8.8419   8.8557   8.8897   9.0182   9.0183   9.1896   9.1977   9.1977
     9.2041   9.2154   9.2301   9.2301   9.2345   9.2599   9.2732   9.2912
     9.2913   9.3330   9.3331   9.3404   9.3407   9.3443   9.3588   9.5367
     9.5414   9.5820   9.5822   9.6737   9.6749   9.6750   9.6933   9.7076
     9.7328   9.7329   9.7338   9.7665   9.7667   9.7920   9.8188   9.8188
     9.8227   9.8924   9.9088   9.9137   9.9138   9.9150   9.9264   9.9265
     9.9396   9.9450   9.9451  10.0257  10.0258  10.0406  10.0430  10.0505
    10.1445  10.1509  10.1510  10.1686  10.2219  10.3533  10.4238  10.4714
    10.4868  10.4870  10.5029  10.5049  10.5092  10.5093  10.5802  10.5829
    10.5929  10.6011  10.6011  10.6457  10.6458  10.6742  10.6763  10.6765
    10.6862  10.7024  10.7870  10.7870  10.8680  10.8723  10.9003  10.9181
    10.9181  11.0140  11.0327  11.0336  11.0422  11.0423  11.0476  11.0955
    11.0956  11.1670  11.1677  11.1677  11.1701  12.4312  12.4313  12.4379
    12.4411  12.4858  12.4859  12.5211  12.5713  12.9325  12.9468  13.0461
    13.0461  13.0512  13.0512  13.1110  13.1261  14.0682  16.5167  16.5167
    16.5220  16.6692  17.3329  17.4524  17.5450  17.5450  17.5561  17.5561
    17.6382  17.6439  19.6036  20.0525  20.0998  20.2542  20.2542  21.0654
    21.2290  21.2290  21.2855

     the Fermi energy is    12.5092 ev

!    total energy              =   -5760.94977544 Ry
     total all-electron energy =    -88707.665697 Ry
     estimated scf accuracy    <       0.00000035 Ry
     smearing contrib. (-TS)   =      -0.01448791 Ry
     internal energy E=F+TS    =   -5760.93528754 Ry

     The total energy is F=E-TS. E is the sum of the following terms:
     one-electron contribution =    -783.13193179 Ry
     hartree contribution      =     838.63714557 Ry
     xc contribution           =   -1206.70769912 Ry
     ewald contribution        =   -2203.81607471 Ry
     one-center paw contrib.   =   -2405.91672748 Ry

     convergence has been achieved in  20 iterations

     Writing all to output data dir ./tmp/cu.save/

     General routines

     Parallel routines

   This run was terminated on:  23:22:59  25Feb2024

   JOB DONE.